NAME: Christofides-12
BEST_KNOWN: 819.56
COMMENT: 819.560000
DIMENSION: 101
CAPACITY: 200
EDGE_WEIGHT_FORMAT: FUNCTION
EDGE_WEIGHT_TYPE: EXACT_2D
NODE_COORD_SECTION
1 0.00000 0.00000
2 5.00000 18.00000
3 5.00000 20.00000
4 2.00000 16.00000
5 2.00000 18.00000
6 2.00000 15.00000
7 0.00000 19.00000
8 0.00000 16.00000
9 -2.00000 18.00000
10 -2.00000 20.00000
11 -5.00000 16.00000
12 -5.00000 19.00000
13 -15.00000 35.00000
14 -18.00000 25.00000
15 -18.00000 35.00000
16 -20.00000 30.00000
17 -20.00000 35.00000
18 -22.00000 25.00000
19 -25.00000 25.00000
20 -25.00000 30.00000
21 -10.00000 0.00000
22 -10.00000 2.00000
23 -12.00000 2.00000
24 -12.00000 5.00000
25 -15.00000 0.00000
26 -15.00000 2.00000
27 -15.00000 5.00000
28 -17.00000 2.00000
29 -17.00000 5.00000
30 -20.00000 0.00000
31 -20.00000 5.00000
32 -30.00000 -15.00000
33 -30.00000 -10.00000
34 -32.00000 -10.00000
35 -32.00000 -5.00000
36 -35.00000 -15.00000
37 -35.00000 -5.00000
38 -38.00000 -10.00000
39 -40.00000 -10.00000
40 -40.00000 -5.00000
41 -5.00000 -20.00000
42 -5.00000 -18.00000
43 -7.00000 -18.00000
44 -7.00000 -15.00000
45 -8.00000 -20.00000
46 -10.00000 -20.00000
47 -10.00000 -18.00000
48 -10.00000 -15.00000
49 -12.00000 -20.00000
50 -12.00000 -15.00000
51 -14.00000 -18.00000
52 -15.00000 -20.00000
53 -15.00000 -15.00000
54 4.00000 -45.00000
55 2.00000 -40.00000
56 2.00000 -35.00000
57 0.00000 -45.00000
58 0.00000 -35.00000
59 -2.00000 -45.00000
60 -2.00000 -35.00000
61 -5.00000 -45.00000
62 10.00000 -20.00000
63 10.00000 -15.00000
64 10.00000 -10.00000
65 8.00000 -20.00000
66 8.00000 -10.00000
67 7.00000 -15.00000
68 7.00000 -10.00000
69 5.00000 -20.00000
70 5.00000 -15.00000
71 55.00000 -20.00000
72 55.00000 -15.00000
73 13.00000 -20.00000
74 52.00000 -20.00000
75 13.00000 -15.00000
76 5.00000 15.00000
77 50.00000 -15.00000
78 48.00000 -20.00000
79 48.00000 -15.00000
80 47.00000 -20.00000
81 45.00000 -25.00000
82 45.00000 -15.00000
83 35.00000 5.00000
84 32.00000 5.00000
85 30.00000 8.00000
86 28.00000 10.00000
87 26.00000 5.00000
88 25.00000 5.00000
89 25.00000 10.00000
90 23.00000 8.00000
91 20.00000 5.00000
92 20.00000 10.00000
93 27.00000 35.00000
94 25.00000 35.00000
95 25.00000 32.00000
96 22.00000 30.00000
97 20.00000 30.00000
98 20.00000 35.00000
99 18.00000 25.00000
100 15.00000 30.00000
101 15.00000 35.00000
DEMAND_SECTION
1 0
2 10
3 30
4 10
5 10
6 10
7 20
8 20
9 20
10 10
11 10
12 10
13 20
14 30
15 10
16 40
17 40
18 20
19 20
20 10
21 10
22 20
23 20
24 10
25 10
26 40
27 10
28 10
29 20
30 10
31 10
32 20
33 30
34 40
35 20
36 10
37 10
38 20
39 30
40 20
41 10
42 10
43 20
44 10
45 10
46 10
47 30
48 10
49 10
50 10
51 10
52 10
53 10
54 20
55 40
56 10
57 30
58 40
59 30
60 10
61 20
62 10
63 20
64 50
65 10
66 10
67 10
68 10
69 10
70 10
71 30
72 20
73 10
74 10
75 50
76 20
77 10
78 10
79 20
80 10
81 10
82 30
83 20
84 10
85 20
86 30
87 10
88 20
89 30
90 10
91 10
92 10
93 20
94 40
95 10
96 30
97 10
98 30
99 20
100 10
101 20
DEPOT_SECTION
1
-1
EOF
